decision_x1=[0,2];
decision_x2=[0,2];
decision_x3=[0,2];
decision_x4=[0,2];
decision_x5=[0,2];
decision_x6=[0,2];
random_y1=[0,2];
random_y2=[0,2];
constraint_x2_x1=[
0,0,0.45|
0,1,4.1|
0,2,7.4|
1,0,9.3|
1,1,6.1|
1,2,0.98|
2,0,5.4|
2,1,2.1|
2,2,8.2|
];
constraint_x3_x2=[
0,0,9.8|
0,1,6.3|
0,2,2.1|
1,0,9.3|
1,1,2.5|
1,2,6.9|
2,0,3.8|
2,1,7.9|
2,2,6.6|
];
constraint_x4_x2=[
0,0,6.6|
0,1,7|
0,2,2.8|
1,0,7.1|
1,1,6.8|
1,2,8.3|
2,0,4.3|
2,1,1.5|
2,2,4.5|
];
constraint_x5_x2=[
0,0,0.9|
0,1,8.4|
0,2,2.8|
1,0,9|
1,1,8.9|
1,2,0.67|
2,0,6.5|
2,1,8.4|
2,2,6.4|
];
constraint_x5_x3=[
0,0,1.7|
0,1,7.9|
0,2,1.2|
1,0,5|
1,1,4.1|
1,2,0.83|
2,0,8.9|
2,1,4.5|
2,2,6.3|
];
constraint_x5_x4=[
0,0,3.3|
0,1,4.4|
0,2,7|
1,0,6.1|
1,1,5.1|
1,2,4.5|
2,0,8.1|
2,1,5.5|
2,2,2.4|
];
constraint_x6_x1=[
0,0,8|
0,1,3|
0,2,3.8|
1,0,8.8|
1,1,1.2|
1,2,1.7|
2,0,7.6|
2,1,1.9|
2,2,0.77|
];
constraint_x6_x3=[
0,0,9.5|
0,1,2.7|
0,2,4.2|
1,0,2.3|
1,1,3.9|
1,2,0.14|
2,0,7.1|
2,1,4.2|
2,2,3|
];
constraint_x1_y1=[
0,0,9.9|
0,1,6.5|
0,2,6.5|
1,0,6.5|
1,1,2.7|
1,2,0.31|
2,0,3.9|
2,1,0.58|
2,2,8.6|
];
constraint_x2_y2=[
0,0,0.75|
0,1,7.5|
0,2,8.9|
1,0,9.9|
1,1,3.8|
1,2,5.1|
2,0,3.9|
2,1,9.5|
2,2,4.7|
];
initial_distribution_y1=[0.3,0.17,0.53];
initial_distribution_y2=[0.4,0.23,0.37];
transition_y1=[
0.36,0.19,0.45|
0.16,0.59,0.25|
0.31,0.35,0.35|
];
transition_y2=[
0.37,0.2,0.42|
0.43,0.52,0.052|
0.24,0.36,0.39|
];
